10
2 0 11
2 1 24
3 0 7
3 1 12
3 2 9
4 0 37
4 1 20
4 2 11
5 0 5
5 1 35
5 2 33
5 3 4
5 4 11
6 0 2
6 2 20
6 3 14
6 5 28
7 0 17
7 1 21
7 2 23
7 3 20
7 4 17
7 5 2
7 6 11
8 0 36
8 1 5
8 2 19
8 3 11
8 4 22
8 5 35
8 6 15
8 7 39
9 0 33
9 1 3
9 2 15
9 3 34
9 4 36
9 5 10
9 6 27
9 7 29
9 8 18
